p edge 1494 1439
e 1 2
e 1 3
e 1 4
e 1 5
e 1 6
e 1 7
e 1 8
e 1 9
e 1 10
e 1 11
e 1 12
e 1 13
e 1 14
e 1 15
e 1 16
e 1 17
e 1 18
e 1 19
e 1 20
e 21 22
e 21 23
e 21 24
e 21 25
e 21 26
e 21 27
e 21 28
e 21 29
e 21 30
e 21 31
e 21 32
e 21 33
e 21 34
e 21 35
e 21 36
e 21 37
e 21 38
e 21 39
e 21 40
e 21 41
e 21 42
e 21 43
e 21 44
e 21 45
e 21 46
e 21 47
e 21 48
e 21 49
e 50 51
e 50 52
e 50 53
e 50 54
e 50 55
e 50 56
e 50 57
e 50 58
e 50 59
e 50 60
e 50 61
e 50 62
e 50 63
e 50 64
e 50 65
e 50 66
e 50 67
e 50 68
e 50 69
e 50 70
e 50 71
e 50 72
e 50 73
e 50 74
e 50 75
e 50 76
e 50 77
e 50 78
e 50 79
e 50 80
e 50 81
e 50 82
e 50 83
e 50 84
e 85 86
e 85 87
e 85 88
e 85 89
e 85 90
e 85 91
e 85 92
e 85 93
e 85 94
e 85 95
e 85 96
e 85 97
e 85 98
e 85 99
e 85 100
e 85 101
e 85 102
e 85 103
e 85 104
e 85 105
e 85 106
e 85 107
e 85 108
e 85 109
e 85 110
e 85 111
e 85 112
e 85 113
e 85 114
e 85 115
e 85 116
e 85 117
e 85 118
e 85 119
e 120 121
e 120 122
e 120 123
e 120 124
e 120 125
e 120 126
e 120 127
e 120 128
e 120 129
e 120 130
e 120 131
e 120 132
e 120 133
e 120 134
e 120 135
e 120 136
e 120 137
e 120 138
e 120 139
e 120 140
e 120 141
e 120 142
e 120 143
e 120 144
e 120 145
e 146 147
e 146 148
e 146 149
e 146 150
e 146 151
e 146 152
e 146 153
e 146 154
e 146 155
e 146 156
e 146 157
e 146 158
e 146 159
e 146 160
e 146 161
e 146 162
e 146 163
e 146 164
e 165 166
e 165 167
e 165 168
e 165 169
e 165 170
e 165 171
e 165 172
e 165 173
e 165 174
e 165 175
e 165 176
e 165 177
e 165 178
e 165 179
e 165 180
e 165 181
e 165 182
e 165 183
e 165 184
e 165 185
e 165 186
e 165 187
e 165 188
e 165 189
e 165 190
e 165 191
e 165 192
e 165 193
e 194 195
e 194 196
e 194 197
e 194 198
e 194 199
e 194 200
e 194 201
e 194 202
e 194 203
e 194 204
e 194 205
e 206 207
e 206 208
e 206 209
e 206 210
e 206 211
e 206 212
e 206 213
e 206 214
e 206 215
e 206 216
e 206 217
e 206 218
e 206 219
e 206 220
e 206 221
e 206 222
e 206 223
e 206 224
e 206 225
e 206 226
e 206 227
e 206 228
e 206 229
e 206 230
e 206 231
e 206 232
e 206 233
e 206 234
e 206 235
e 206 236
e 206 237
e 206 238
e 206 239
e 206 240
e 241 242
e 241 243
e 241 244
e 241 245
e 241 246
e 241 247
e 241 248
e 241 249
e 241 250
e 241 251
e 241 252
e 241 253
e 241 254
e 241 255
e 241 256
e 241 257
e 241 258
e 241 259
e 241 260
e 241 261
e 241 262
e 241 263
e 241 264
e 241 265
e 241 266
e 241 267
e 241 268
e 241 269
e 241 270
e 241 271
e 241 272
e 241 273
e 241 274
e 241 275
e 241 276
e 241 277
e 241 278
e 279 280
e 279 281
e 279 282
e 279 283
e 279 284
e 279 285
e 279 286
e 279 287
e 279 288
e 279 289
e 279 290
e 279 291
e 279 292
e 279 293
e 279 294
e 279 295
e 279 296
e 279 297
e 279 298
e 279 299
e 279 300
e 279 301
e 279 302
e 279 303
e 279 304
e 279 305
e 279 306
e 279 307
e 279 308
e 279 309
e 279 310
e 279 311
e 279 312
e 279 313
e 314 315
e 314 316
e 314 317
e 314 318
e 314 319
e 314 320
e 314 321
e 314 322
e 314 323
e 314 324
e 325 326
e 325 327
e 325 328
e 325 329
e 325 330
e 325 331
e 325 332
e 325 333
e 325 334
e 325 335
e 325 336
e 325 337
e 338 339
e 338 340
e 338 341
e 338 342
e 338 343
e 338 344
e 338 345
e 338 346
e 338 347
e 338 348
e 338 349
e 338 350
e 338 351
e 338 352
e 338 353
e 338 354
e 338 355
e 338 356
e 338 357
e 338 358
e 338 359
e 338 360
e 338 361
e 338 362
e 338 363
e 338 364
e 365 366
e 365 367
e 365 368
e 365 369
e 365 370
e 365 371
e 365 372
e 365 373
e 365 374
e 365 375
e 365 376
e 365 377
e 365 378
e 365 379
e 365 380
e 365 381
e 365 382
e 365 383
e 365 384
e 365 385
e 365 386
e 365 387
e 365 388
e 365 389
e 365 390
e 365 391
e 365 392
e 365 393
e 365 394
e 365 395
e 365 396
e 365 397
e 365 398
e 365 399
e 365 400
e 365 401
e 365 402
e 365 403
e 365 404
e 405 406
e 405 407
e 405 408
e 405 409
e 405 410
e 405 411
e 405 412
e 405 413
e 405 414
e 405 415
e 405 416
e 405 417
e 405 418
e 405 419
e 405 420
e 405 421
e 405 422
e 405 423
e 405 424
e 405 425
e 405 426
e 405 427
e 405 428
e 405 429
e 405 430
e 405 431
e 405 432
e 405 433
e 405 434
e 405 435
e 405 436
e 405 437
e 405 438
e 439 440
e 439 441
e 439 442
e 439 443
e 439 444
e 439 445
e 439 446
e 439 447
e 439 448
e 439 449
e 439 450
e 439 451
e 439 452
e 439 453
e 439 454
e 439 455
e 439 456
e 439 457
e 439 458
e 439 459
e 439 460
e 461 462
e 461 463
e 461 464
e 461 465
e 461 466
e 461 467
e 461 468
e 461 469
e 461 470
e 461 471
e 461 472
e 461 473
e 461 474
e 461 475
e 461 476
e 461 477
e 461 478
e 479 480
e 479 481
e 479 482
e 479 483
e 479 484
e 479 485
e 479 486
e 479 487
e 479 488
e 479 489
e 479 490
e 479 491
e 479 492
e 479 493
e 479 494
e 479 495
e 479 496
e 479 497
e 479 498
e 479 499
e 479 500
e 479 501
e 479 502
e 479 503
e 479 504
e 479 505
e 479 506
e 479 507
e 479 508
e 479 509
e 479 510
e 479 511
e 479 512
e 479 513
e 514 515
e 514 516
e 514 517
e 514 518
e 514 519
e 514 520
e 514 521
e 514 522
e 514 523
e 514 524
e 514 525
e 514 526
e 514 527
e 514 528
e 514 529
e 514 530
e 514 531
e 514 532
e 533 534
e 533 535
e 533 536
e 533 537
e 533 538
e 533 539
e 533 540
e 533 541
e 533 542
e 533 543
e 533 544
e 533 545
e 533 546
e 533 547
e 533 548
e 533 549
e 533 550
e 533 551
e 533 552
e 533 553
e 533 554
e 533 555
e 533 556
e 533 557
e 533 558
e 533 559
e 533 560
e 533 561
e 533 562
e 533 563
e 533 564
e 533 565
e 533 566
e 533 567
e 533 568
e 533 569
e 533 570
e 533 571
e 572 573
e 572 574
e 572 575
e 572 576
e 572 577
e 572 578
e 572 579
e 572 580
e 572 581
e 572 582
e 572 583
e 572 584
e 572 585
e 572 586
e 572 587
e 572 588
e 572 589
e 572 590
e 572 591
e 572 592
e 572 593
e 572 594
e 572 595
e 572 596
e 572 597
e 572 598
e 572 599
e 600 601
e 600 602
e 600 603
e 600 604
e 600 605
e 600 606
e 600 607
e 600 608
e 600 609
e 600 610
e 600 611
e 600 612
e 600 613
e 600 614
e 600 615
e 600 616
e 600 617
e 600 618
e 600 619
e 600 620
e 600 621
e 600 622
e 600 623
e 600 624
e 600 625
e 600 626
e 600 627
e 600 628
e 600 629
e 600 630
e 600 631
e 600 632
e 600 633
e 600 634
e 600 635
e 600 636
e 600 637
e 600 638
e 600 639
e 640 641
e 640 642
e 640 643
e 640 644
e 640 645
e 640 646
e 640 647
e 640 648
e 640 649
e 640 650
e 640 651
e 640 652
e 640 653
e 640 654
e 640 655
e 640 656
e 640 657
e 640 658
e 640 659
e 640 660
e 640 661
e 640 662
e 640 663
e 640 664
e 640 665
e 640 666
e 640 667
e 640 668
e 640 669
e 640 670
e 640 671
e 640 672
e 640 673
e 640 674
e 675 676
e 675 677
e 675 678
e 675 679
e 675 680
e 675 681
e 675 682
e 675 683
e 675 684
e 675 685
e 675 686
e 675 687
e 675 688
e 675 689
e 675 690
e 675 691
e 675 692
e 675 693
e 675 694
e 675 695
e 675 696
e 675 697
e 675 698
e 675 699
e 675 700
e 675 701
e 702 703
e 702 704
e 702 705
e 702 706
e 702 707
e 702 708
e 702 709
e 702 710
e 702 711
e 702 712
e 702 713
e 702 714
e 702 715
e 702 716
e 702 717
e 702 718
e 702 719
e 702 720
e 702 721
e 702 722
e 702 723
e 702 724
e 702 725
e 726 727
e 726 728
e 726 729
e 726 730
e 726 731
e 726 732
e 726 733
e 726 734
e 726 735
e 726 736
e 726 737
e 726 738
e 726 739
e 726 740
e 726 741
e 726 742
e 726 743
e 744 745
e 744 746
e 744 747
e 744 748
e 744 749
e 744 750
e 744 751
e 744 752
e 744 753
e 744 754
e 744 755
e 744 756
e 744 757
e 744 758
e 744 759
e 744 760
e 744 761
e 744 762
e 744 763
e 744 764
e 744 765
e 744 766
e 744 767
e 744 768
e 744 769
e 744 770
e 744 771
e 744 772
e 744 773
e 744 774
e 744 775
e 744 776
e 744 777
e 744 778
e 744 779
e 780 781
e 780 782
e 780 783
e 780 784
e 780 785
e 780 786
e 780 787
e 780 788
e 780 789
e 780 790
e 780 791
e 780 792
e 780 793
e 780 794
e 780 795
e 780 796
e 780 797
e 780 798
e 780 799
e 800 801
e 800 802
e 800 803
e 800 804
e 800 805
e 800 806
e 800 807
e 800 808
e 800 809
e 800 810
e 800 811
e 800 812
e 800 813
e 800 814
e 800 815
e 800 816
e 800 817
e 800 818
e 800 819
e 800 820
e 800 821
e 800 822
e 800 823
e 800 824
e 800 825
e 800 826
e 800 827
e 800 828
e 800 829
e 800 830
e 800 831
e 800 832
e 800 833
e 800 834
e 800 835
e 800 836
e 800 837
e 800 838
e 800 839
e 840 841
e 840 842
e 840 843
e 840 844
e 840 845
e 840 846
e 840 847
e 840 848
e 840 849
e 840 850
e 840 851
e 840 852
e 840 853
e 840 854
e 840 855
e 840 856
e 840 857
e 840 858
e 859 860
e 859 861
e 859 862
e 859 863
e 859 864
e 859 865
e 859 866
e 859 867
e 859 868
e 859 869
e 859 870
e 859 871
e 859 872
e 859 873
e 859 874
e 859 875
e 859 876
e 859 877
e 859 878
e 859 879
e 859 880
e 881 882
e 881 883
e 881 884
e 881 885
e 881 886
e 881 887
e 881 888
e 881 889
e 881 890
e 881 891
e 881 892
e 881 893
e 894 895
e 894 896
e 894 897
e 894 898
e 894 899
e 894 900
e 894 901
e 894 902
e 894 903
e 894 904
e 894 905
e 894 906
e 894 907
e 894 908
e 894 909
e 894 910
e 894 911
e 894 912
e 894 913
e 914 915
e 914 916
e 914 917
e 914 918
e 914 919
e 914 920
e 914 921
e 914 922
e 914 923
e 914 924
e 914 925
e 914 926
e 927 928
e 927 929
e 927 930
e 927 931
e 927 932
e 927 933
e 927 934
e 927 935
e 927 936
e 927 937
e 927 938
e 927 939
e 927 940
e 927 941
e 927 942
e 927 943
e 927 944
e 927 945
e 946 947
e 946 948
e 946 949
e 946 950
e 946 951
e 946 952
e 946 953
e 946 954
e 946 955
e 946 956
e 946 957
e 946 958
e 946 959
e 946 960
e 946 961
e 946 962
e 946 963
e 946 964
e 946 965
e 946 966
e 946 967
e 946 968
e 946 969
e 946 970
e 946 971
e 946 972
e 946 973
e 946 974
e 946 975
e 976 977
e 976 978
e 976 979
e 976 980
e 976 981
e 976 982
e 976 983
e 976 984
e 976 985
e 976 986
e 976 987
e 976 988
e 976 989
e 976 990
e 976 991
e 976 992
e 976 993
e 976 994
e 976 995
e 976 996
e 976 997
e 976 998
e 976 999
e 976 1000
e 976 1001
e 976 1002
e 976 1003
e 976 1004
e 976 1005
e 976 1006
e 976 1007
e 976 1008
e 976 1009
e 976 1010
e 1011 1012
e 1011 1013
e 1011 1014
e 1011 1015
e 1011 1016
e 1011 1017
e 1011 1018
e 1011 1019
e 1011 1020
e 1011 1021
e 1011 1022
e 1011 1023
e 1011 1024
e 1011 1025
e 1011 1026
e 1011 1027
e 1011 1028
e 1011 1029
e 1011 1030
e 1011 1031
e 1011 1032
e 1011 1033
e 1011 1034
e 1011 1035
e 1011 1036
e 1011 1037
e 1011 1038
e 1011 1039
e 1011 1040
e 1041 1042
e 1041 1043
e 1041 1044
e 1041 1045
e 1041 1046
e 1041 1047
e 1041 1048
e 1041 1049
e 1041 1050
e 1041 1051
e 1041 1052
e 1041 1053
e 1041 1054
e 1041 1055
e 1041 1056
e 1041 1057
e 1041 1058
e 1041 1059
e 1041 1060
e 1041 1061
e 1041 1062
e 1041 1063
e 1041 1064
e 1041 1065
e 1041 1066
e 1041 1067
e 1041 1068
e 1041 1069
e 1070 1071
e 1070 1072
e 1070 1073
e 1070 1074
e 1070 1075
e 1070 1076
e 1070 1077
e 1070 1078
e 1070 1079
e 1070 1080
e 1070 1081
e 1070 1082
e 1070 1083
e 1070 1084
e 1070 1085
e 1070 1086
e 1070 1087
e 1070 1088
e 1070 1089
e 1070 1090
e 1070 1091
e 1070 1092
e 1070 1093
e 1070 1094
e 1070 1095
e 1070 1096
e 1070 1097
e 1070 1098
e 1070 1099
e 1070 1100
e 1070 1101
e 1070 1102
e 1070 1103
e 1070 1104
e 1070 1105
e 1070 1106
e 1107 1108
e 1107 1109
e 1107 1110
e 1107 1111
e 1107 1112
e 1107 1113
e 1107 1114
e 1107 1115
e 1107 1116
e 1107 1117
e 1107 1118
e 1107 1119
e 1120 1121
e 1120 1122
e 1120 1123
e 1120 1124
e 1120 1125
e 1120 1126
e 1120 1127
e 1120 1128
e 1120 1129
e 1120 1130
e 1120 1131
e 1120 1132
e 1120 1133
e 1120 1134
e 1120 1135
e 1120 1136
e 1120 1137
e 1120 1138
e 1120 1139
e 1120 1140
e 1120 1141
e 1120 1142
e 1120 1143
e 1120 1144
e 1120 1145
e 1120 1146
e 1120 1147
e 1120 1148
e 1120 1149
e 1120 1150
e 1151 1152
e 1151 1153
e 1151 1154
e 1151 1155
e 1151 1156
e 1151 1157
e 1151 1158
e 1151 1159
e 1151 1160
e 1151 1161
e 1151 1162
e 1151 1163
e 1151 1164
e 1151 1165
e 1151 1166
e 1151 1167
e 1151 1168
e 1151 1169
e 1151 1170
e 1151 1171
e 1151 1172
e 1151 1173
e 1151 1174
e 1151 1175
e 1176 1177
e 1176 1178
e 1176 1179
e 1176 1180
e 1176 1181
e 1176 1182
e 1176 1183
e 1176 1184
e 1176 1185
e 1176 1186
e 1176 1187
e 1176 1188
e 1176 1189
e 1176 1190
e 1176 1191
e 1176 1192
e 1176 1193
e 1176 1194
e 1176 1195
e 1176 1196
e 1176 1197
e 1176 1198
e 1176 1199
e 1176 1200
e 1176 1201
e 1176 1202
e 1176 1203
e 1176 1204
e 1176 1205
e 1176 1206
e 1176 1207
e 1176 1208
e 1176 1209
e 1176 1210
e 1176 1211
e 1176 1212
e 1176 1213
e 1176 1214
e 1176 1215
e 1176 1216
e 1217 1218
e 1217 1219
e 1217 1220
e 1217 1221
e 1217 1222
e 1217 1223
e 1217 1224
e 1217 1225
e 1217 1226
e 1217 1227
e 1217 1228
e 1217 1229
e 1217 1230
e 1217 1231
e 1217 1232
e 1217 1233
e 1217 1234
e 1217 1235
e 1217 1236
e 1217 1237
e 1217 1238
e 1217 1239
e 1217 1240
e 1217 1241
e 1217 1242
e 1217 1243
e 1244 1245
e 1244 1246
e 1244 1247
e 1244 1248
e 1244 1249
e 1244 1250
e 1244 1251
e 1244 1252
e 1244 1253
e 1244 1254
e 1244 1255
e 1244 1256
e 1244 1257
e 1244 1258
e 1244 1259
e 1244 1260
e 1244 1261
e 1244 1262
e 1244 1263
e 1244 1264
e 1244 1265
e 1244 1266
e 1244 1267
e 1244 1268
e 1244 1269
e 1244 1270
e 1244 1271
e 1244 1272
e 1244 1273
e 1244 1274
e 1244 1275
e 1276 1277
e 1276 1278
e 1276 1279
e 1276 1280
e 1276 1281
e 1276 1282
e 1276 1283
e 1276 1284
e 1276 1285
e 1276 1286
e 1276 1287
e 1276 1288
e 1276 1289
e 1276 1290
e 1276 1291
e 1276 1292
e 1293 1294
e 1293 1295
e 1293 1296
e 1293 1297
e 1293 1298
e 1293 1299
e 1293 1300
e 1293 1301
e 1293 1302
e 1293 1303
e 1293 1304
e 1293 1305
e 1293 1306
e 1293 1307
e 1293 1308
e 1293 1309
e 1293 1310
e 1293 1311
e 1293 1312
e 1293 1313
e 1293 1314
e 1293 1315
e 1293 1316
e 1293 1317
e 1293 1318
e 1293 1319
e 1293 1320
e 1293 1321
e 1293 1322
e 1293 1323
e 1293 1324
e 1293 1325
e 1326 1327
e 1326 1328
e 1326 1329
e 1326 1330
e 1326 1331
e 1326 1332
e 1326 1333
e 1326 1334
e 1326 1335
e 1326 1336
e 1326 1337
e 1326 1338
e 1326 1339
e 1326 1340
e 1326 1341
e 1326 1342
e 1326 1343
e 1326 1344
e 1326 1345
e 1326 1346
e 1326 1347
e 1326 1348
e 1326 1349
e 1326 1350
e 1326 1351
e 1326 1352
e 1326 1353
e 1326 1354
e 1326 1355
e 1326 1356
e 1326 1357
e 1326 1358
e 1359 1360
e 1359 1361
e 1359 1362
e 1359 1363
e 1359 1364
e 1359 1365
e 1359 1366
e 1359 1367
e 1359 1368
e 1359 1369
e 1359 1370
e 1359 1371
e 1359 1372
e 1359 1373
e 1359 1374
e 1359 1375
e 1359 1376
e 1359 1377
e 1359 1378
e 1359 1379
e 1359 1380
e 1359 1381
e 1359 1382
e 1383 1384
e 1383 1385
e 1383 1386
e 1383 1387
e 1383 1388
e 1383 1389
e 1383 1390
e 1383 1391
e 1383 1392
e 1383 1393
e 1383 1394
e 1383 1395
e 1383 1396
e 1383 1397
e 1383 1398
e 1383 1399
e 1383 1400
e 1401 1402
e 1401 1403
e 1401 1404
e 1401 1405
e 1401 1406
e 1401 1407
e 1401 1408
e 1401 1409
e 1401 1410
e 1401 1411
e 1401 1412
e 1401 1413
e 1401 1414
e 1401 1415
e 1401 1416
e 1401 1417
e 1401 1418
e 1401 1419
e 1401 1420
e 1401 1421
e 1401 1422
e 1401 1423
e 1401 1424
e 1401 1425
e 1401 1426
e 1401 1427
e 1401 1428
e 1401 1429
e 1401 1430
e 1401 1431
e 1401 1432
e 1401 1433
e 1401 1434
e 1401 1435
e 1401 1436
e 1401 1437
e 1401 1438
e 1401 1439
e 1440 1441
e 1440 1442
e 1440 1443
e 1440 1444
e 1440 1445
e 1440 1446
e 1440 1447
e 1440 1448
e 1440 1449
e 1440 1450
e 1440 1451
e 1440 1452
e 1440 1453
e 1440 1454
e 1440 1455
e 1440 1456
e 1440 1457
e 1440 1458
e 1440 1459
e 1440 1460
e 1440 1461
e 1440 1462
e 1440 1463
e 1440 1464
e 1440 1465
e 1440 1466
e 1440 1467
e 1440 1468
e 1440 1469
e 1440 1470
e 1471 1472
e 1471 1473
e 1471 1474
e 1471 1475
e 1471 1476
e 1471 1477
e 1471 1478
e 1471 1479
e 1471 1480
e 1471 1481
e 1471 1482
e 1471 1483
e 1471 1484
e 1471 1485
e 1471 1486
e 1471 1487
e 1471 1488
e 1471 1489
e 1471 1490
e 1471 1491
e 1471 1492
e 1471 1493
e 1471 1494
